(set-logic HORN)
(set-info :source |
    Benchmark: C_VC
    Output by Princess (http://www.philipp.ruemmer.org/princess.shtml)
|)
(set-info :status unsat)
(declare-fun inv_main1355 (Int Int Int Int Int Int Int Int Int Int Int Int Int Int Int Int Int Int Int Int Int Int Int Int Int Int Int Int Int Int Int Int Int Int Int Int Int Int Int Int Int Int Int Int Int Int Int Int Int Int Int Int Int Int Int Int Int Int Int Int Int Int Int Int Int Int Int Int Int Int Int Int Int Int Int Int Int Int Int Int Int Int Int Int Int Int Int Int Int Int Int Int Int Int Int Int Int Int Int Int Int Int Int Int Int Int Int Int Int Int Int Int Int Int Int Int Int Int Int Int Int) Bool)
(declare-fun inv_main6 (Int Int Int Int) Bool)
(assert (forall ((var0 Int) (var1 Int) (var2 Int)) (inv_main6 var2 0 var1 var0)))
(assert (forall ((var0 Int) (var1 Int) (var2 Int) (var3 Int) (var4 Int) (var5 Int) (var6 Int) (var7 Int) (var8 Int) (var9 Int) (var10 Int) (var11 Int) (var12 Int) (var13 Int) (var14 Int) (var15 Int) (var16 Int) (var17 Int) (var18 Int) (var19 Int) (var20 Int) (var21 Int) (var22 Int) (var23 Int) (var24 Int) (var25 Int) (var26 Int) (var27 Int) (var28 Int) (var29 Int) (var30 Int) (var31 Int) (var32 Int) (var33 Int) (var34 Int) (var35 Int) (var36 Int) (var37 Int) (var38 Int) (var39 Int) (var40 Int) (var41 Int) (var42 Int) (var43 Int) (var44 Int) (var45 Int) (var46 Int) (var47 Int) (var48 Int) (var49 Int) (var50 Int) (var51 Int) (var52 Int) (var53 Int) (var54 Int) (var55 Int) (var56 Int) (var57 Int) (var58 Int) (var59 Int) (var60 Int) (var61 Int) (var62 Int) (var63 Int) (var64 Int) (var65 Int) (var66 Int) (var67 Int) (var68 Int) (var69 Int) (var70 Int) (var71 Int) (var72 Int) (var73 Int) (var74 Int) (var75 Int) (var76 Int) (var77 Int) (var78 Int) (var79 Int) (var80 Int) (var81 Int) (var82 Int) (var83 Int) (var84 Int) (var85 Int) (var86 Int) (var87 Int) (var88 Int) (var89 Int) (var90 Int) (var91 Int) (var92 Int) (var93 Int) (var94 Int) (var95 Int) (var96 Int) (var97 Int) (var98 Int) (var99 Int) (var100 Int) (var101 Int) (var102 Int) (var103 Int) (var104 Int) (var105 Int) (var106 Int) (var107 Int) (var108 Int) (var109 Int) (var110 Int) (var111 Int) (var112 Int) (var113 Int) (var114 Int) (var115 Int) (var116 Int) (var117 Int) (var118 Int) (var119 Int) (var120 Int)) (or (not (and (inv_main6 var120 var119 var118 var117) (and (and (and (and (and (and (and (and (and (and (and (and (and (and (and (and (and (and (and (and (and (and (and (and (and (and (and (and (and (and (and (and (and (and (and (and (and (and (and (and (and (and (and (and (and (and (and (and (and (and (and (and (and (and (and (and (and (and (and (and (and (and (and (and (and (and (and (and (and (and (and (and (and (and (and (and (and (and (and (and (and (and (and (and (and (and (and (and (and (and (and (and (and (and (and (and (and (and (and (and (and (and (and (and (and (and (and (and (and (and (and (and (and (and (and (and (and (and (not (= (+ var116 (* (- 1) var115)) (+ var114 (* (- 1) var113)))) (and (= (+ var112 (* (- 1) var113)) var111) (and (= (+ var114 (* (- 1) var115)) var110) (and (= (+ var116 (* (- 1) var109)) var108) (and (= (+ var107 (* (- 1) var113)) var106) (and (= (+ var112 (* (- 1) var115)) var105) (and (= (+ var114 (* (- 1) var109)) var104) (and (= (+ var116 (* (- 1) var103)) var102) (and (= (+ var101 (* (- 1) var113)) var100) (and (= (+ var107 (* (- 1) var115)) var99) (and (= (+ var112 (* (- 1) var109)) var98) (and (= (+ var114 (* (- 1) var103)) var97) (and (= (+ var116 (* (- 1) var96)) var95) (and (= (+ var94 (* (- 1) var113)) var93) (and (= (+ var101 (* (- 1) var115)) var92) (and (= (+ var107 (* (- 1) var109)) var91) (and (= (+ var112 (* (- 1) var103)) var90) (and (= (+ var114 (* (- 1) var96)) var89) (and (= (+ var116 (* (- 1) var88)) var87) (and (= (+ var86 (* (- 1) var113)) var85) (and (= (+ var94 (* (- 1) var115)) var84) (and (= (+ var101 (* (- 1) var109)) var83) (and (= (+ var107 (* (- 1) var103)) var82) (and (= (+ var112 (* (- 1) var96)) var81) (and (= (+ var114 (* (- 1) var88)) var80) (and (= (+ var116 (* (- 1) var79)) var78) (and (= (+ var77 (* (- 1) var113)) var76) (and (= (+ var86 (* (- 1) var115)) var75) (and (= (+ var94 (* (- 1) var109)) var74) (and (= (+ var101 (* (- 1) var103)) var73) (and (= (+ var107 (* (- 1) var96)) var72) (and (= (+ var112 (* (- 1) var88)) var71) (and (= (+ var114 (* (- 1) var79)) var70) (and (= (+ var116 (* (- 1) var77)) var69) (and (= (+ var79 (* (- 1) var113)) var68) (and (= (+ var77 (* (- 1) var115)) var67) (and (= (+ var86 (* (- 1) var109)) var66) (and (= (+ var94 (* (- 1) var103)) var65) (and (= (+ var101 (* (- 1) var96)) var64) (and (= (+ var107 (* (- 1) var88)) var63) (and (= (+ var112 (* (- 1) var79)) var62) (and (= (+ var114 (* (- 1) var77)) var61) (and (= (+ var116 (* (- 1) var86)) var60) (and (= (+ var88 (* (- 1) var113)) var59) (and (= (+ var79 (* (- 1) var115)) var58) (and (= (+ var77 (* (- 1) var109)) var57) (and (= (+ var86 (* (- 1) var103)) var56) (and (= (+ var94 (* (- 1) var96)) var55) (and (= (+ var101 (* (- 1) var88)) var54) (and (= (+ var107 (* (- 1) var79)) var53) (and (= (+ var112 (* (- 1) var77)) var52) (and (= (+ var114 (* (- 1) var86)) var51) (and (= (+ var116 (* (- 1) var94)) var50) (and (= (+ var96 (* (- 1) var113)) var49) (and (= (+ var88 (* (- 1) var115)) var48) (and (= (+ var79 (* (- 1) var109)) var47) (and (= (+ var77 (* (- 1) var103)) var46) (and (= (+ var86 (* (- 1) var96)) var45) (and (= (+ var94 (* (- 1) var88)) var44) (and (= (+ var101 (* (- 1) var79)) var43) (and (= (+ var107 (* (- 1) var77)) var42) (and (= (+ var112 (* (- 1) var86)) var41) (and (= (+ var114 (* (- 1) var94)) var40) (and (= (+ var116 (* (- 1) var101)) var39) (and (= (+ var103 (* (- 1) var113)) var38) (and (= (+ var96 (* (- 1) var115)) var37) (and (= (+ var88 (* (- 1) var109)) var36) (and (= (+ var79 (* (- 1) var103)) var35) (and (= (+ var77 (* (- 1) var96)) var34) (and (= (+ var86 (* (- 1) var88)) var33) (and (= (+ var94 (* (- 1) var79)) var32) (and (= (+ var101 (* (- 1) var77)) var31) (and (= (+ var107 (* (- 1) var86)) var30) (and (= (+ var112 (* (- 1) var94)) var29) (and (= (+ var114 (* (- 1) var101)) var28) (and (= (+ var116 (* (- 1) var107)) var27) (and (= (+ var109 (* (- 1) var113)) var26) (and (= (+ var103 (* (- 1) var115)) var25) (and (= (+ var96 (* (- 1) var109)) var24) (and (= (+ var88 (* (- 1) var103)) var23) (and (= (+ var79 (* (- 1) var96)) var22) (and (= (+ var77 (* (- 1) var88)) var21) (and (= (+ var86 (* (- 1) var79)) var20) (and (= (+ var94 (* (- 1) var77)) var19) (and (= (+ var101 (* (- 1) var86)) var18) (and (= (+ var107 (* (- 1) var94)) var17) (and (= (+ var112 (* (- 1) var101)) var16) (and (= (+ var114 (* (- 1) var107)) var15) (and (= (+ var116 (* (- 1) var112)) var14) (and (= (+ var115 (* (- 1) var113)) var13) (and (= (+ var109 (* (- 1) var115)) var12) (and (= (+ var103 (* (- 1) var109)) var11) (and (= (+ var96 (* (- 1) var103)) var10) (and (= (+ var88 (* (- 1) var96)) var9) (and (= (+ var79 (* (- 1) var88)) var8) (and (= (+ var77 (* (- 1) var79)) var7) (and (= (+ var86 (* (- 1) var77)) var6) (and (= (+ var94 (* (- 1) var86)) var5) (and (= (+ var101 (* (- 1) var94)) var4) (and (= (+ var107 (* (- 1) var101)) var3) (and (= (+ var112 (* (- 1) var107)) var2) (and (= (+ var114 (* (- 1) var112)) var1) (and (= (+ var116 (* (- 1) var114)) var0) (and (not (= var110 var111)) (and (not (= var108 var111)) (and (not (= var108 var110)) (and (not (= var105 var106)) (and (not (= var104 var106)) (and (not (= var104 var105)) (and (not (= var102 var106)) (and (not (= var102 var105)) (and (not (= var102 var104)) (and (not (= var99 var100)) (and (not (= var98 var100)) (and (not (= var98 var99)) (and (not (= var97 var100)) (and (not (= var97 var99)) (and (not (= var97 var98)) (and (not (= var95 var100)) (and (not (= var95 var99)) (and (not (= var95 var98)) (and (not (= var95 var97)) (and (not (= var92 var93)) (and (not (= var91 var93)) (and (not (= var91 var92)) (and (not (= var90 var93)) (and (not (= var90 var92)) (and (not (= var90 var91)) (and (not (= var89 var93)) (and (not (= var89 var92)) (and (not (= var89 var91)) (and (not (= var89 var90)) (and (not (= var87 var93)) (and (not (= var87 var92)) (and (not (= var87 var91)) (and (not (= var87 var90)) (and (not (= var87 var89)) (and (not (= var84 var85)) (and (not (= var83 var85)) (and (not (= var83 var84)) (and (not (= var82 var85)) (and (not (= var82 var84)) (and (not (= var82 var83)) (and (not (= var81 var85)) (and (not (= var81 var84)) (and (not (= var81 var83)) (and (not (= var81 var82)) (and (not (= var80 var85)) (and (not (= var80 var84)) (and (not (= var80 var83)) (and (not (= var80 var82)) (and (not (= var80 var81)) (and (not (= var78 var85)) (and (not (= var78 var84)) (and (not (= var78 var83)) (and (not (= var78 var82)) (and (not (= var78 var81)) (and (not (= var78 var80)) (and (not (= var75 var76)) (and (not (= var74 var76)) (and (not (= var74 var75)) (and (not (= var73 var76)) (and (not (= var73 var75)) (and (not (= var73 var74)) (and (not (= var72 var76)) (and (not (= var72 var75)) (and (not (= var72 var74)) (and (not (= var72 var73)) (and (not (= var71 var76)) (and (not (= var71 var75)) (and (not (= var71 var74)) (and (not (= var71 var73)) (and (not (= var71 var72)) (and (not (= var70 var76)) (and (not (= var70 var75)) (and (not (= var70 var74)) (and (not (= var70 var73)) (and (not (= var70 var72)) (and (not (= var70 var71)) (and (not (= var69 var76)) (and (not (= var69 var75)) (and (not (= var69 var74)) (and (not (= var69 var73)) (and (not (= var69 var72)) (and (not (= var69 var71)) (and (not (= var69 var70)) (and (not (= var67 var68)) (and (not (= var66 var68)) (and (not (= var66 var67)) (and (not (= var65 var68)) (and (not (= var65 var67)) (and (not (= var65 var66)) (and (not (= var64 var68)) (and (not (= var64 var67)) (and (not (= var64 var66)) (and (not (= var64 var65)) (and (not (= var63 var68)) (and (not (= var63 var67)) (and (not (= var63 var66)) (and (not (= var63 var65)) (and (not (= var63 var64)) (and (not (= var62 var68)) (and (not (= var62 var67)) (and (not (= var62 var66)) (and (not (= var62 var65)) (and (not (= var62 var64)) (and (not (= var62 var63)) (and (not (= var61 var68)) (and (not (= var61 var67)) (and (not (= var61 var66)) (and (not (= var61 var65)) (and (not (= var61 var64)) (and (not (= var61 var63)) (and (not (= var61 var62)) (and (not (= var60 var68)) (and (not (= var60 var67)) (and (not (= var60 var66)) (and (not (= var60 var65)) (and (not (= var60 var64)) (and (not (= var60 var63)) (and (not (= var60 var62)) (and (not (= var60 var61)) (and (not (= var58 var59)) (and (not (= var57 var59)) (and (not (= var57 var58)) (and (not (= var56 var59)) (and (not (= var56 var58)) (and (not (= var56 var57)) (and (not (= var55 var59)) (and (not (= var55 var58)) (and (not (= var55 var57)) (and (not (= var55 var56)) (and (not (= var54 var59)) (and (not (= var54 var58)) (and (not (= var54 var57)) (and (not (= var54 var56)) (and (not (= var54 var55)) (and (not (= var53 var59)) (and (not (= var53 var58)) (and (not (= var53 var57)) (and (not (= var53 var56)) (and (not (= var53 var55)) (and (not (= var53 var54)) (and (not (= var52 var59)) (and (not (= var52 var58)) (and (not (= var52 var57)) (and (not (= var52 var56)) (and (not (= var52 var55)) (and (not (= var52 var54)) (and (not (= var52 var53)) (and (not (= var51 var59)) (and (not (= var51 var58)) (and (not (= var51 var57)) (and (not (= var51 var56)) (and (not (= var51 var55)) (and (not (= var51 var54)) (and (not (= var51 var53)) (and (not (= var51 var52)) (and (not (= var50 var59)) (and (not (= var50 var58)) (and (not (= var50 var57)) (and (not (= var50 var56)) (and (not (= var50 var55)) (and (not (= var50 var54)) (and (not (= var50 var53)) (and (not (= var50 var52)) (and (not (= var50 var51)) (and (not (= var48 var49)) (and (not (= var47 var49)) (and (not (= var47 var48)) (and (not (= var46 var49)) (and (not (= var46 var48)) (and (not (= var46 var47)) (and (not (= var45 var49)) (and (not (= var45 var48)) (and (not (= var45 var47)) (and (not (= var45 var46)) (and (not (= var44 var49)) (and (not (= var44 var48)) (and (not (= var44 var47)) (and (not (= var44 var46)) (and (not (= var44 var45)) (and (not (= var43 var49)) (and (not (= var43 var48)) (and (not (= var43 var47)) (and (not (= var43 var46)) (and (not (= var43 var45)) (and (not (= var43 var44)) (and (not (= var42 var49)) (and (not (= var42 var48)) (and (not (= var42 var47)) (and (not (= var42 var46)) (and (not (= var42 var45)) (and (not (= var42 var44)) (and (not (= var42 var43)) (and (not (= var41 var49)) (and (not (= var41 var48)) (and (not (= var41 var47)) (and (not (= var41 var46)) (and (not (= var41 var45)) (and (not (= var41 var44)) (and (not (= var41 var43)) (and (not (= var41 var42)) (and (not (= var40 var49)) (and (not (= var40 var48)) (and (not (= var40 var47)) (and (not (= var40 var46)) (and (not (= var40 var45)) (and (not (= var40 var44)) (and (not (= var40 var43)) (and (not (= var40 var42)) (and (not (= var40 var41)) (and (not (= var39 var49)) (and (not (= var39 var48)) (and (not (= var39 var47)) (and (not (= var39 var46)) (and (not (= var39 var45)) (and (not (= var39 var44)) (and (not (= var39 var43)) (and (not (= var39 var42)) (and (not (= var39 var41)) (and (not (= var39 var40)) (and (not (= var37 var38)) (and (not (= var36 var38)) (and (not (= var36 var37)) (and (not (= var35 var38)) (and (not (= var35 var37)) (and (not (= var35 var36)) (and (not (= var34 var38)) (and (not (= var34 var37)) (and (not (= var34 var36)) (and (not (= var34 var35)) (and (not (= var33 var38)) (and (not (= var33 var37)) (and (not (= var33 var36)) (and (not (= var33 var35)) (and (not (= var33 var34)) (and (not (= var32 var38)) (and (not (= var32 var37)) (and (not (= var32 var36)) (and (not (= var32 var35)) (and (not (= var32 var34)) (and (not (= var32 var33)) (and (not (= var31 var38)) (and (not (= var31 var37)) (and (not (= var31 var36)) (and (not (= var31 var35)) (and (not (= var31 var34)) (and (not (= var31 var33)) (and (not (= var31 var32)) (and (not (= var30 var38)) (and (not (= var30 var37)) (and (not (= var30 var36)) (and (not (= var30 var35)) (and (not (= var30 var34)) (and (not (= var30 var33)) (and (not (= var30 var32)) (and (not (= var30 var31)) (and (not (= var29 var38)) (and (not (= var29 var37)) (and (not (= var29 var36)) (and (not (= var29 var35)) (and (not (= var29 var34)) (and (not (= var29 var33)) (and (not (= var29 var32)) (and (not (= var29 var31)) (and (not (= var29 var30)) (and (not (= var28 var38)) (and (not (= var28 var37)) (and (not (= var28 var36)) (and (not (= var28 var35)) (and (not (= var28 var34)) (and (not (= var28 var33)) (and (not (= var28 var32)) (and (not (= var28 var31)) (and (not (= var28 var30)) (and (not (= var28 var29)) (and (not (= var27 var38)) (and (not (= var27 var37)) (and (not (= var27 var36)) (and (not (= var27 var35)) (and (not (= var27 var34)) (and (not (= var27 var33)) (and (not (= var27 var32)) (and (not (= var27 var31)) (and (not (= var27 var30)) (and (not (= var27 var29)) (and (not (= var27 var28)) (and (not (= var25 var26)) (and (not (= var24 var26)) (and (not (= var24 var25)) (and (not (= var23 var26)) (and (not (= var23 var25)) (and (not (= var23 var24)) (and (not (= var22 var26)) (and (not (= var22 var25)) (and (not (= var22 var24)) (and (not (= var22 var23)) (and (not (= var21 var26)) (and (not (= var21 var25)) (and (not (= var21 var24)) (and (not (= var21 var23)) (and (not (= var21 var22)) (and (not (= var20 var26)) (and (not (= var20 var25)) (and (not (= var20 var24)) (and (not (= var20 var23)) (and (not (= var20 var22)) (and (not (= var20 var21)) (and (not (= var19 var26)) (and (not (= var19 var25)) (and (not (= var19 var24)) (and (not (= var19 var23)) (and (not (= var19 var22)) (and (not (= var19 var21)) (and (not (= var19 var20)) (and (not (= var18 var26)) (and (not (= var18 var25)) (and (not (= var18 var24)) (and (not (= var18 var23)) (and (not (= var18 var22)) (and (not (= var18 var21)) (and (not (= var18 var20)) (and (not (= var18 var19)) (and (not (= var17 var26)) (and (not (= var17 var25)) (and (not (= var17 var24)) (and (not (= var17 var23)) (and (not (= var17 var22)) (and (not (= var17 var21)) (and (not (= var17 var20)) (and (not (= var17 var19)) (and (not (= var17 var18)) (and (not (= var16 var26)) (and (not (= var16 var25)) (and (not (= var16 var24)) (and (not (= var16 var23)) (and (not (= var16 var22)) (and (not (= var16 var21)) (and (not (= var16 var20)) (and (not (= var16 var19)) (and (not (= var16 var18)) (and (not (= var16 var17)) (and (not (= var15 var26)) (and (not (= var15 var25)) (and (not (= var15 var24)) (and (not (= var15 var23)) (and (not (= var15 var22)) (and (not (= var15 var21)) (and (not (= var15 var20)) (and (not (= var15 var19)) (and (not (= var15 var18)) (and (not (= var15 var17)) (and (not (= var15 var16)) (and (not (= var14 var26)) (and (not (= var14 var25)) (and (not (= var14 var24)) (and (not (= var14 var23)) (and (not (= var14 var22)) (and (not (= var14 var21)) (and (not (= var14 var20)) (and (not (= var14 var19)) (and (not (= var14 var18)) (and (not (= var14 var17)) (and (not (= var14 var16)) (and (not (= var14 var15)) (and (not (= var12 var13)) (and (not (= var11 var13)) (and (not (= var11 var12)) (and (not (= var10 var13)) (and (not (= var10 var12)) (and (not (= var10 var11)) (and (not (= var9 var13)) (and (not (= var9 var12)) (and (not (= var9 var11)) (and (not (= var9 var10)) (and (not (= var8 var13)) (and (not (= var8 var12)) (and (not (= var8 var11)) (and (not (= var8 var10)) (and (not (= var8 var9)) (and (not (= var7 var13)) (and (not (= var7 var12)) (and (not (= var7 var11)) (and (not (= var7 var10)) (and (not (= var7 var9)) (and (not (= var7 var8)) (and (not (= var6 var13)) (and (not (= var6 var12)) (and (not (= var6 var11)) (and (not (= var6 var10)) (and (not (= var6 var9)) (and (not (= var6 var8)) (and (not (= var6 var7)) (and (not (= var5 var13)) (and (not (= var5 var12)) (and (not (= var5 var11)) (and (not (= var5 var10)) (and (not (= var5 var9)) (and (not (= var5 var8)) (and (not (= var5 var7)) (and (not (= var5 var6)) (and (not (= var4 var13)) (and (not (= var4 var12)) (and (not (= var4 var11)) (and (not (= var4 var10)) (and (not (= var4 var9)) (and (not (= var4 var8)) (and (not (= var4 var7)) (and (not (= var4 var6)) (and (not (= var4 var5)) (and (not (= var3 var13)) (and (not (= var3 var12)) (and (not (= var3 var11)) (and (not (= var3 var10)) (and (not (= var3 var9)) (and (not (= var3 var8)) (and (not (= var3 var7)) (and (not (= var3 var6)) (and (not (= var3 var5)) (and (not (= var3 var4)) (and (not (= var2 var13)) (and (not (= var2 var12)) (and (not (= var2 var11)) (and (not (= var2 var10)) (and (not (= var2 var9)) (and (not (= var2 var8)) (and (not (= var2 var7)) (and (not (= var2 var6)) (and (not (= var2 var5)) (and (not (= var2 var4)) (and (not (= var2 var3)) (and (not (= var1 var13)) (and (not (= var1 var12)) (and (not (= var1 var11)) (and (not (= var1 var10)) (and (not (= var1 var9)) (and (not (= var1 var8)) (and (not (= var1 var7)) (and (not (= var1 var6)) (and (not (= var1 var5)) (and (not (= var1 var4)) (and (not (= var1 var3)) (and (not (= var1 var2)) (and (not (= var0 var13)) (and (not (= var0 var12)) (and (not (= var0 var11)) (and (not (= var0 var10)) (and (not (= var0 var9)) (and (not (= var0 var8)) (and (not (= var0 var7)) (and (not (= var0 var6)) (and (not (= var0 var5)) (and (not (= var0 var4)) (and (not (= var0 var3)) (and (not (= var0 var2)) (and (not (= var0 var1)) (and (not (= var115 var113)) (and (not (= var109 var113)) (and (not (= var109 var115)) (and (not (= var103 var113)) (and (not (= var103 var115)) (and (not (= var103 var109)) (and (not (= var96 var113)) (and (not (= var96 var115)) (and (not (= var96 var109)) (and (not (= var96 var103)) (and (not (= var88 var113)) (and (not (= var88 var115)) (and (not (= var88 var109)) (and (not (= var88 var103)) (and (not (= var88 var96)) (and (not (= var79 var113)) (and (not (= var79 var115)) (and (not (= var79 var109)) (and (not (= var79 var103)) (and (not (= var79 var96)) (and (not (= var79 var88)) (and (not (= var77 var113)) (and (not (= var77 var115)) (and (not (= var77 var109)) (and (not (= var77 var103)) (and (not (= var77 var96)) (and (not (= var77 var88)) (and (not (= var77 var79)) (and (not (= var86 var113)) (and (not (= var86 var115)) (and (not (= var86 var109)) (and (not (= var86 var103)) (and (not (= var86 var96)) (and (not (= var86 var88)) (and (not (= var86 var79)) (and (not (= var86 var77)) (and (not (= var94 var113)) (and (not (= var94 var115)) (and (not (= var94 var109)) (and (not (= var94 var103)) (and (not (= var94 var96)) (and (not (= var94 var88)) (and (not (= var94 var79)) (and (not (= var94 var77)) (and (not (= var94 var86)) (and (not (= var101 var113)) (and (not (= var101 var115)) (and (not (= var101 var109)) (and (not (= var101 var103)) (and (not (= var101 var96)) (and (not (= var101 var88)) (and (not (= var101 var79)) (and (not (= var101 var77)) (and (not (= var101 var86)) (and (not (= var101 var94)) (and (not (= var107 var113)) (and (not (= var107 var115)) (and (not (= var107 var109)) (and (not (= var107 var103)) (and (not (= var107 var96)) (and (not (= var107 var88)) (and (not (= var107 var79)) (and (not (= var107 var77)) (and (not (= var107 var86)) (and (not (= var107 var94)) (and (not (= var107 var101)) (and (not (= var112 var113)) (and (not (= var112 var115)) (and (not (= var112 var109)) (and (not (= var112 var103)) (and (not (= var112 var96)) (and (not (= var112 var88)) (and (not (= var112 var79)) (and (not (= var112 var77)) (and (not (= var112 var86)) (and (not (= var112 var94)) (and (not (= var112 var101)) (and (not (= var112 var107)) (and (not (= var114 var113)) (and (not (= var114 var115)) (and (not (= var114 var109)) (and (not (= var114 var103)) (and (not (= var114 var96)) (and (not (= var114 var88)) (and (not (= var114 var79)) (and (not (= var114 var77)) (and (not (= var114 var86)) (and (not (= var114 var94)) (and (not (= var114 var101)) (and (not (= var114 var107)) (and (not (= var114 var112)) (and (not (= var116 var113)) (and (not (= var116 var115)) (and (not (= var116 var109)) (and (not (= var116 var103)) (and (not (= var116 var96)) (and (not (= var116 var88)) (and (not (= var116 var79)) (and (not (= var116 var77)) (and (not (= var116 var86)) (and (not (= var116 var94)) (and (not (= var116 var101)) (and (not (= var116 var107)) (and (not (= var116 var112)) (not (= var116 var114))))))))))))))))))))))))))))))))))))))))))))))))))))))))))))))))))))))))))))))))))))))))))))))))))))))))))))))))))))))))))))))))))))))))))))))))))))))))))))))))))))))))))))))))))))))))))))))))))))))))))))))))))))))))))))))))))))))))))))))))))))))))))))))))))))))))))))))))))))))))))))))))))))))))))))))))))))))))))))))))))))))))))))))))))))))))))))))))))))))))))))))))))))))))))))))))))))))))))))))))))))))))))))))))))))))))))))))))))))))))))))))))))))))))))))))))))))))))))))))))))))))))))))))))))))))))))))))))))))))))))))))))))))))))))))))))))))))))))))))))))))))))))))))))))))))))))))))))))))))))))))))))))))))))))))))))))))))))))))))))))))))))))))))))))))))) (and (not (= var111 0)) (and (<= 0 (+ 14 (* (- 1) var111))) (<= 0 (+ var111 14))))) (and (not (= var110 0)) (and (<= 0 (+ 14 (* (- 1) var110))) (<= 0 (+ var110 14))))) (and (not (= var108 0)) (and (<= 0 (+ 14 (* (- 1) var108))) (<= 0 (+ var108 14))))) (and (not (= var106 0)) (and (<= 0 (+ 14 (* (- 1) var106))) (<= 0 (+ var106 14))))) (and (not (= var105 0)) (and (<= 0 (+ 14 (* (- 1) var105))) (<= 0 (+ var105 14))))) (and (not (= var104 0)) (and (<= 0 (+ 14 (* (- 1) var104))) (<= 0 (+ var104 14))))) (and (not (= var102 0)) (and (<= 0 (+ 14 (* (- 1) var102))) (<= 0 (+ var102 14))))) (and (not (= var100 0)) (and (<= 0 (+ 14 (* (- 1) var100))) (<= 0 (+ var100 14))))) (and (not (= var99 0)) (and (<= 0 (+ 14 (* (- 1) var99))) (<= 0 (+ var99 14))))) (and (not (= var98 0)) (and (<= 0 (+ 14 (* (- 1) var98))) (<= 0 (+ var98 14))))) (and (not (= var97 0)) (and (<= 0 (+ 14 (* (- 1) var97))) (<= 0 (+ var97 14))))) (and (not (= var95 0)) (and (<= 0 (+ 14 (* (- 1) var95))) (<= 0 (+ var95 14))))) (and (not (= var93 0)) (and (<= 0 (+ 14 (* (- 1) var93))) (<= 0 (+ var93 14))))) (and (not (= var92 0)) (and (<= 0 (+ 14 (* (- 1) var92))) (<= 0 (+ var92 14))))) (and (not (= var91 0)) (and (<= 0 (+ 14 (* (- 1) var91))) (<= 0 (+ var91 14))))) (and (not (= var90 0)) (and (<= 0 (+ 14 (* (- 1) var90))) (<= 0 (+ var90 14))))) (and (not (= var89 0)) (and (<= 0 (+ 14 (* (- 1) var89))) (<= 0 (+ var89 14))))) (and (not (= var87 0)) (and (<= 0 (+ 14 (* (- 1) var87))) (<= 0 (+ var87 14))))) (and (not (= var85 0)) (and (<= 0 (+ 14 (* (- 1) var85))) (<= 0 (+ var85 14))))) (and (not (= var84 0)) (and (<= 0 (+ 14 (* (- 1) var84))) (<= 0 (+ var84 14))))) (and (not (= var83 0)) (and (<= 0 (+ 14 (* (- 1) var83))) (<= 0 (+ var83 14))))) (and (not (= var82 0)) (and (<= 0 (+ 14 (* (- 1) var82))) (<= 0 (+ var82 14))))) (and (not (= var81 0)) (and (<= 0 (+ 14 (* (- 1) var81))) (<= 0 (+ var81 14))))) (and (not (= var80 0)) (and (<= 0 (+ 14 (* (- 1) var80))) (<= 0 (+ var80 14))))) (and (not (= var78 0)) (and (<= 0 (+ 14 (* (- 1) var78))) (<= 0 (+ var78 14))))) (and (not (= var76 0)) (and (<= 0 (+ 14 (* (- 1) var76))) (<= 0 (+ var76 14))))) (and (not (= var75 0)) (and (<= 0 (+ 14 (* (- 1) var75))) (<= 0 (+ var75 14))))) (and (not (= var74 0)) (and (<= 0 (+ 14 (* (- 1) var74))) (<= 0 (+ var74 14))))) (and (not (= var73 0)) (and (<= 0 (+ 14 (* (- 1) var73))) (<= 0 (+ var73 14))))) (and (not (= var72 0)) (and (<= 0 (+ 14 (* (- 1) var72))) (<= 0 (+ var72 14))))) (and (not (= var71 0)) (and (<= 0 (+ 14 (* (- 1) var71))) (<= 0 (+ var71 14))))) (and (not (= var70 0)) (and (<= 0 (+ 14 (* (- 1) var70))) (<= 0 (+ var70 14))))) (and (not (= var69 0)) (and (<= 0 (+ 14 (* (- 1) var69))) (<= 0 (+ var69 14))))) (and (not (= var68 0)) (and (<= 0 (+ 14 (* (- 1) var68))) (<= 0 (+ var68 14))))) (and (not (= var67 0)) (and (<= 0 (+ 14 (* (- 1) var67))) (<= 0 (+ var67 14))))) (and (not (= var66 0)) (and (<= 0 (+ 14 (* (- 1) var66))) (<= 0 (+ var66 14))))) (and (not (= var65 0)) (and (<= 0 (+ 14 (* (- 1) var65))) (<= 0 (+ var65 14))))) (and (not (= var64 0)) (and (<= 0 (+ 14 (* (- 1) var64))) (<= 0 (+ var64 14))))) (and (not (= var63 0)) (and (<= 0 (+ 14 (* (- 1) var63))) (<= 0 (+ var63 14))))) (and (not (= var62 0)) (and (<= 0 (+ 14 (* (- 1) var62))) (<= 0 (+ var62 14))))) (and (not (= var61 0)) (and (<= 0 (+ 14 (* (- 1) var61))) (<= 0 (+ var61 14))))) (and (not (= var60 0)) (and (<= 0 (+ 14 (* (- 1) var60))) (<= 0 (+ var60 14))))) (and (not (= var59 0)) (and (<= 0 (+ 14 (* (- 1) var59))) (<= 0 (+ var59 14))))) (and (not (= var58 0)) (and (<= 0 (+ 14 (* (- 1) var58))) (<= 0 (+ var58 14))))) (and (not (= var57 0)) (and (<= 0 (+ 14 (* (- 1) var57))) (<= 0 (+ var57 14))))) (and (not (= var56 0)) (and (<= 0 (+ 14 (* (- 1) var56))) (<= 0 (+ var56 14))))) (and (not (= var55 0)) (and (<= 0 (+ 14 (* (- 1) var55))) (<= 0 (+ var55 14))))) (and (not (= var54 0)) (and (<= 0 (+ 14 (* (- 1) var54))) (<= 0 (+ var54 14))))) (and (not (= var53 0)) (and (<= 0 (+ 14 (* (- 1) var53))) (<= 0 (+ var53 14))))) (and (not (= var52 0)) (and (<= 0 (+ 14 (* (- 1) var52))) (<= 0 (+ var52 14))))) (and (not (= var51 0)) (and (<= 0 (+ 14 (* (- 1) var51))) (<= 0 (+ var51 14))))) (and (not (= var50 0)) (and (<= 0 (+ 14 (* (- 1) var50))) (<= 0 (+ var50 14))))) (and (not (= var49 0)) (and (<= 0 (+ 14 (* (- 1) var49))) (<= 0 (+ var49 14))))) (and (not (= var48 0)) (and (<= 0 (+ 14 (* (- 1) var48))) (<= 0 (+ var48 14))))) (and (not (= var47 0)) (and (<= 0 (+ 14 (* (- 1) var47))) (<= 0 (+ var47 14))))) (and (not (= var46 0)) (and (<= 0 (+ 14 (* (- 1) var46))) (<= 0 (+ var46 14))))) (and (not (= var45 0)) (and (<= 0 (+ 14 (* (- 1) var45))) (<= 0 (+ var45 14))))) (and (not (= var44 0)) (and (<= 0 (+ 14 (* (- 1) var44))) (<= 0 (+ var44 14))))) (and (not (= var43 0)) (and (<= 0 (+ 14 (* (- 1) var43))) (<= 0 (+ var43 14))))) (and (not (= var42 0)) (and (<= 0 (+ 14 (* (- 1) var42))) (<= 0 (+ var42 14))))) (and (not (= var41 0)) (and (<= 0 (+ 14 (* (- 1) var41))) (<= 0 (+ var41 14))))) (and (not (= var40 0)) (and (<= 0 (+ 14 (* (- 1) var40))) (<= 0 (+ var40 14))))) (and (not (= var39 0)) (and (<= 0 (+ 14 (* (- 1) var39))) (<= 0 (+ var39 14))))) (and (not (= var38 0)) (and (<= 0 (+ 14 (* (- 1) var38))) (<= 0 (+ var38 14))))) (and (not (= var37 0)) (and (<= 0 (+ 14 (* (- 1) var37))) (<= 0 (+ var37 14))))) (and (not (= var36 0)) (and (<= 0 (+ 14 (* (- 1) var36))) (<= 0 (+ var36 14))))) (and (not (= var35 0)) (and (<= 0 (+ 14 (* (- 1) var35))) (<= 0 (+ var35 14))))) (and (not (= var34 0)) (and (<= 0 (+ 14 (* (- 1) var34))) (<= 0 (+ var34 14))))) (and (not (= var33 0)) (and (<= 0 (+ 14 (* (- 1) var33))) (<= 0 (+ var33 14))))) (and (not (= var32 0)) (and (<= 0 (+ 14 (* (- 1) var32))) (<= 0 (+ var32 14))))) (and (not (= var31 0)) (and (<= 0 (+ 14 (* (- 1) var31))) (<= 0 (+ var31 14))))) (and (not (= var30 0)) (and (<= 0 (+ 14 (* (- 1) var30))) (<= 0 (+ var30 14))))) (and (not (= var29 0)) (and (<= 0 (+ 14 (* (- 1) var29))) (<= 0 (+ var29 14))))) (and (not (= var28 0)) (and (<= 0 (+ 14 (* (- 1) var28))) (<= 0 (+ var28 14))))) (and (not (= var27 0)) (and (<= 0 (+ 14 (* (- 1) var27))) (<= 0 (+ var27 14))))) (and (not (= var26 0)) (and (<= 0 (+ 14 (* (- 1) var26))) (<= 0 (+ var26 14))))) (and (not (= var25 0)) (and (<= 0 (+ 14 (* (- 1) var25))) (<= 0 (+ var25 14))))) (and (not (= var24 0)) (and (<= 0 (+ 14 (* (- 1) var24))) (<= 0 (+ var24 14))))) (and (not (= var23 0)) (and (<= 0 (+ 14 (* (- 1) var23))) (<= 0 (+ var23 14))))) (and (not (= var22 0)) (and (<= 0 (+ 14 (* (- 1) var22))) (<= 0 (+ var22 14))))) (and (not (= var21 0)) (and (<= 0 (+ 14 (* (- 1) var21))) (<= 0 (+ var21 14))))) (and (not (= var20 0)) (and (<= 0 (+ 14 (* (- 1) var20))) (<= 0 (+ var20 14))))) (and (not (= var19 0)) (and (<= 0 (+ 14 (* (- 1) var19))) (<= 0 (+ var19 14))))) (and (not (= var18 0)) (and (<= 0 (+ 14 (* (- 1) var18))) (<= 0 (+ var18 14))))) (and (not (= var17 0)) (and (<= 0 (+ 14 (* (- 1) var17))) (<= 0 (+ var17 14))))) (and (not (= var16 0)) (and (<= 0 (+ 14 (* (- 1) var16))) (<= 0 (+ var16 14))))) (and (not (= var15 0)) (and (<= 0 (+ 14 (* (- 1) var15))) (<= 0 (+ var15 14))))) (and (not (= var14 0)) (and (<= 0 (+ 14 (* (- 1) var14))) (<= 0 (+ var14 14))))) (and (not (= var13 0)) (and (<= 0 (+ 14 (* (- 1) var13))) (<= 0 (+ var13 14))))) (and (not (= var12 0)) (and (<= 0 (+ 14 (* (- 1) var12))) (<= 0 (+ var12 14))))) (and (not (= var11 0)) (and (<= 0 (+ 14 (* (- 1) var11))) (<= 0 (+ var11 14))))) (and (not (= var10 0)) (and (<= 0 (+ 14 (* (- 1) var10))) (<= 0 (+ var10 14))))) (and (not (= var9 0)) (and (<= 0 (+ 14 (* (- 1) var9))) (<= 0 (+ var9 14))))) (and (not (= var8 0)) (and (<= 0 (+ 14 (* (- 1) var8))) (<= 0 (+ var8 14))))) (and (not (= var7 0)) (and (<= 0 (+ 14 (* (- 1) var7))) (<= 0 (+ var7 14))))) (and (not (= var6 0)) (and (<= 0 (+ 14 (* (- 1) var6))) (<= 0 (+ var6 14))))) (and (not (= var5 0)) (and (<= 0 (+ 14 (* (- 1) var5))) (<= 0 (+ var5 14))))) (and (not (= var4 0)) (and (<= 0 (+ 14 (* (- 1) var4))) (<= 0 (+ var4 14))))) (and (not (= var3 0)) (and (<= 0 (+ 14 (* (- 1) var3))) (<= 0 (+ var3 14))))) (and (not (= var2 0)) (and (<= 0 (+ 14 (* (- 1) var2))) (<= 0 (+ var2 14))))) (and (not (= var1 0)) (and (<= 0 (+ 14 (* (- 1) var1))) (<= 0 (+ var1 14))))) (and (not (= var0 0)) (and (<= 0 (+ 14 (* (- 1) var0))) (<= 0 (+ var0 14))))) (and (<= 0 (+ 15 (* (- 1) var113))) (<= 0 (+ var113 (- 1))))) (and (<= 0 (+ 15 (* (- 1) var115))) (<= 0 (+ var115 (- 1))))) (and (<= 0 (+ 15 (* (- 1) var109))) (<= 0 (+ var109 (- 1))))) (and (<= 0 (+ 15 (* (- 1) var103))) (<= 0 (+ var103 (- 1))))) (and (<= 0 (+ 15 (* (- 1) var96))) (<= 0 (+ var96 (- 1))))) (and (<= 0 (+ 15 (* (- 1) var88))) (<= 0 (+ var88 (- 1))))) (and (<= 0 (+ 15 (* (- 1) var79))) (<= 0 (+ var79 (- 1))))) (and (<= 0 (+ 15 (* (- 1) var77))) (<= 0 (+ var77 (- 1))))) (and (<= 0 (+ 15 (* (- 1) var86))) (<= 0 (+ var86 (- 1))))) (and (<= 0 (+ 15 (* (- 1) var94))) (<= 0 (+ var94 (- 1))))) (and (<= 0 (+ 15 (* (- 1) var101))) (<= 0 (+ var101 (- 1))))) (and (<= 0 (+ 15 (* (- 1) var107))) (<= 0 (+ var107 (- 1))))) (and (<= 0 (+ 15 (* (- 1) var112))) (<= 0 (+ var112 (- 1))))) (and (<= 0 (+ 15 (* (- 1) var114))) (<= 0 (+ var114 (- 1))))) (and (<= 0 (+ 15 (* (- 1) var116))) (<= 0 (+ var116 (- 1))))))) (inv_main1355 var120 var119 var118 var116 var114 var112 var107 var101 var94 var86 var77 var79 var88 var96 var103 var109 var115 var113 var0 var1 var2 var3 var4 var5 var6 var7 var8 var9 var10 var11 var12 var13 var14 var15 var16 var17 var18 var19 var20 var21 var22 var23 var24 var25 var26 var27 var28 var29 var30 var31 var32 var33 var34 var35 var36 var37 var38 var39 var40 var41 var42 var43 var44 var45 var46 var47 var48 var49 var50 var51 var52 var53 var54 var55 var56 var57 var58 var59 var60 var61 var62 var63 var64 var65 var66 var67 var68 var69 var70 var71 var72 var73 var74 var75 var76 var78 var80 var81 var82 var83 var84 var85 var87 var89 var90 var91 var92 var93 var95 var97 var98 var99 var100 var102 var104 var105 var106 var108 var110 var111 1))))
(assert (forall ((var0 Int) (var1 Int) (var2 Int) (var3 Int) (var4 Int) (var5 Int) (var6 Int) (var7 Int) (var8 Int) (var9 Int) (var10 Int) (var11 Int) (var12 Int) (var13 Int) (var14 Int) (var15 Int) (var16 Int) (var17 Int) (var18 Int) (var19 Int) (var20 Int) (var21 Int) (var22 Int) (var23 Int) (var24 Int) (var25 Int) (var26 Int) (var27 Int) (var28 Int) (var29 Int) (var30 Int) (var31 Int) (var32 Int) (var33 Int) (var34 Int) (var35 Int) (var36 Int) (var37 Int) (var38 Int) (var39 Int) (var40 Int) (var41 Int) (var42 Int) (var43 Int) (var44 Int) (var45 Int) (var46 Int) (var47 Int) (var48 Int) (var49 Int) (var50 Int) (var51 Int) (var52 Int) (var53 Int) (var54 Int) (var55 Int) (var56 Int) (var57 Int) (var58 Int) (var59 Int) (var60 Int) (var61 Int) (var62 Int) (var63 Int) (var64 Int) (var65 Int) (var66 Int) (var67 Int) (var68 Int) (var69 Int) (var70 Int) (var71 Int) (var72 Int) (var73 Int) (var74 Int) (var75 Int) (var76 Int) (var77 Int) (var78 Int) (var79 Int) (var80 Int) (var81 Int) (var82 Int) (var83 Int) (var84 Int) (var85 Int) (var86 Int) (var87 Int) (var88 Int) (var89 Int) (var90 Int) (var91 Int) (var92 Int) (var93 Int) (var94 Int) (var95 Int) (var96 Int) (var97 Int) (var98 Int) (var99 Int) (var100 Int) (var101 Int) (var102 Int) (var103 Int) (var104 Int) (var105 Int) (var106 Int) (var107 Int) (var108 Int) (var109 Int) (var110 Int) (var111 Int) (var112 Int) (var113 Int) (var114 Int) (var115 Int) (var116 Int) (var117 Int) (var118 Int) (var119 Int) (var120 Int)) (not (inv_main1355 var120 var119 var118 var117 var116 var115 var114 var113 var112 var111 var110 var109 var108 var107 var106 var105 var104 var103 var102 var101 var100 var99 var98 var97 var96 var95 var94 var93 var92 var91 var90 var89 var88 var87 var86 var85 var84 var83 var82 var81 var80 var79 var78 var77 var76 var75 var74 var73 var72 var71 var70 var69 var68 var67 var66 var65 var64 var63 var62 var61 var60 var59 var58 var57 var56 var55 var54 var53 var52 var51 var50 var49 var48 var47 var46 var45 var44 var43 var42 var41 var40 var39 var38 var37 var36 var35 var34 var33 var32 var31 var30 var29 var28 var27 var26 var25 var24 var23 var22 var21 var20 var19 var18 var17 var16 var15 var14 var13 var12 var11 var10 var9 var8 var7 var6 var5 var4 var3 var2 var1 var0))))
(check-sat)
